34
977.0 726.0
549.0 889.0
536.0 985.0
138.0 228.0
841.0 442.0
710.0 766.0
1.0 509.0
899.0 263.0
902.0 496.0
582.0 469.0
271.0 382.0
856.0 107.0
444.0 889.0
713.0 981.0
450.0 556.0
568.0 702.0
327.0 690.0
295.0 766.0
699.0 965.0
75.0 763.0
135.0 463.0
650.0 410.0
328.0 270.0
405.0 162.0
43.0 208.0
877.0 822.0
981.0 948.0
601.0 485.0
962.0 912.0
149.0 160.0
499.0 972.0
639.0 535.0
213.0 851.0
283.0 456.0